JulietBench/Juliet_Based_Patch_Bench/linux/CWE-189-Numeric-Errors/CVE_2011_1476_b769f49463711205d57286e64cf535ed4daf59e9/Resultmidi_synth_load_patch_Snippet_patch2NEQ.smt2
; benchmark generated from python API
(set-info :status unknown)
(declare-fun R () (_ BitVec 32))
(declare-fun rdx () (_ BitVec 64))
(declare-fun rdi () (_ BitVec 64))
(declare-fun rsi () (_ BitVec 64))
(assert
 (let (($x849 (and (distinct (_ bv1 32) R) true)))
 (let (($x67 (= (_ bv4294967274 32) R)))
 (let ((?x10 ((_ extract 31 0) rdx)))
 (let ((?x6 ((_ extract 31 0) rdi)))
 (let (($x16 (bvslt ?x6 ?x10)))
 (let (($x61 (and $x16 $x67)))
 (let ((?x8 ((_ extract 31 0) rsi)))
 (let (($x11 (= R ?x8)))
 (let (($x51 (bvsge ?x6 ?x10)))
 (let ((?x72 (bvmul (_ bv4294967295 32) ?x10)))
 (let ((?x73 (bvadd ?x6 ?x72)))
 (let (($x844 (bvsge ?x73 ?x8)))
 (let (($x65 (and $x844 $x51 $x11)))
 (let (($x70 (= R ?x73)))
 (let (($x78 (bvslt ?x73 ?x8)))
 (let (($x14 (and $x78 $x51 $x70)))
 (let (($x56 (or $x14 $x65 $x61)))
 (let (($x848 (not $x56)))
 (let (($x850 (and $x848 $x849)))
 (let (($x59 (= (_ bv1 32) R)))
 (let (($x847 (and $x56 $x59)))
 (let (($x851 (or $x847 $x850)))
 (not $x851))))))))))))))))))))))))
(check-sat)
